1 1 2 0
1 1 -3 0
1 -1 -4 0
1 -1 -5 0
1 -2 6 0
1 -2 -3 0
1 2 4 0
1 -7 -8 0
1 -7 9 0
1 -7 -3 0
1 7 -10 0
1 -7 -11 0
1 7 -4 0
1 -7 -5 0
1 9 8 0
1 9 -12 0
1 -9 6 0
1 -9 10 0
1 -9 -11 0
1 3 13 0
1 -3 14 0
1 3 9 0
1 -3 -2 0
1 -3 15 0
1 3 -16 0
1 3 -17 0
1 -3 -18 0
1 -3 1 0
1 -5 -19 0
1 -5 -20 0
1 -5 13 0
1 -5 9 0
1 -5 -2 0
1 -5 -3 0
1 -5 7 0
1 -6 -20 0
1 -6 -9 0
1 -6 2 0
1 -6 21 0
1 -6 -22 0
1 -6 23 0
1 -6 1 0
1 6 4 0
1 -4 9 0
1 -4 -2 0
1 4 -6 0
1 4 16 0
1 -4 -22 0
1 -4 23 0
1 -4 -1 0
1 -18 -8 0
1 18 -12 0
1 18 -10 0
1 18 -11 0
1 18 23 0
1 18 -5 0
1 14 12 0
1 -14 -24 0
1 14 -3 0
1 -14 -10 0
1 14 11 0
1 17 -8 0
1 17 12 0
1 -17 -13 0
1 17 -25 0
1 -17 3 0
1 17 -11 0
1 -17 -22 0
1 -17 -5 0
1 13 -8 0
1 13 25 0
1 13 10 0
1 -13 -17 0
1 13 -26 0
1 -13 -5 0
1 11 27 0
1 11 -28 0
1 -11 12 0
1 -11 9 0
1 11 29 0
1 11 -17 0
1 -11 18 0
1 -12 27 0
1 -12 -30 0
1 12 9 0
1 -12 -31 0
1 -12 -29 0
1 12 17 0
1 12 7 0
1 12 32 0
1 10 8 0
1 -10 33 0
1 -10 13 0
1 -10 -14 0
1 10 9 0
1 10 34 0
1 10 -16 0
1 -10 -17 0
1 10 -18 0
1 10 7 0
1 10 32 0
1 -8 35 0
1 -8 -20 0
1 -8 14 0
1 -8 36 0
1 -8 10 0
1 -8 -16 0
1 8 -17 0
1 -8 18 0
1 -8 -7 0
1 -8 -32 0
1 29 28 0
1 -29 -12 0
1 29 25 0
1 -29 -37 0
1 -29 -11 0
1 29 16 0
1 -29 38 0
1 29 -26 0
1 28 -12 0
1 -28 20 0
1 28 -11 0
1 -28 38 0
1 -31 -27 0
1 -31 12 0
1 31 -25 0
1 -31 -38 0
1 31 26 0
1 27 33 0
1 27 -25 0
1 -27 37 0
1 27 -31 0
1 -27 -11 0
1 -27 38 0
1 26 -13 0
1 26 -37 0
1 -26 -17 0
1 26 -39 0
1 -37 -27 0
1 -37 -40 0
1 -37 17 0
1 37 -41 0
1 -38 27 0
1 38 28 0
1 -38 -40 0
1 38 36 0
1 -38 -31 0
1 38 -29 0
1 38 -17 0
1 -38 -42 0
1 -38 -32 0
1 25 -13 0
1 25 40 0
1 25 43 0
1 25 31 0
1 -25 -29 0
1 -25 17 0
1 -25 -41 0
1 25 42 0
1 44 -45 0
1 -44 46 0
1 44 -47 0
1 -44 48 0
1 46 -49 0
1 -46 -50 0
1 46 44 0
1 -51 45 0
1 -51 52 0
1 -51 53 0
1 -51 -54 0
1 -51 -47 0
1 51 55 0
1 -51 56 0
1 51 7 0
1 -51 -57 0
1 58 45 0
1 -58 -49 0
1 58 52 0
1 58 53 0
1 58 -59 0
1 58 -47 0
1 -58 55 0
1 -49 -24 0
1 49 46 0
1 -49 60 0
1 -49 23 0
1 -49 -51 0
1 47 -49 0
1 47 58 0
1 -47 -46 0
1 -47 -23 0
1 -47 51 0
1 45 61 0
1 -45 46 0
1 45 54 0
1 -45 44 0
1 -54 45 0
1 54 61 0
1 54 58 0
1 -54 46 0
1 54 -60 0
1 54 62 0
1 23 52 0
1 -23 24 0
1 -23 -55 0
1 -23 56 0
1 -23 18 0
1 23 -63 0
1 -24 -52 0
1 24 -14 0
1 -24 53 0
1 24 64 0
1 -24 47 0
1 -24 -55 0
1 -24 -56 0
1 24 4 0
1 -22 -49 0
1 -22 65 0
1 22 52 0
1 -22 -53 0
1 -22 -66 0
1 -22 47 0
1 22 -55 0
1 22 56 0
1 22 4 0
1 -65 49 0
1 -65 61 0
1 -65 -53 0
1 65 66 0
1 -65 -67 0
1 65 6 0
1 65 -22 0
1 53 -68 0
1 -53 56 0
1 -53 33 0
1 53 65 0
1 53 69 0
1 53 58 0
1 -53 -70 0
1 53 -34 0
1 -53 16 0
1 -53 -23 0
1 -53 51 0
1 56 -68 0
1 56 -33 0
1 56 20 0
1 -56 65 0
1 56 -58 0
1 56 -70 0
1 56 34 0
1 56 -16 0
1 56 -22 0
1 -56 -71 0
1 56 -23 0
1 -56 -51 0
1 52 68 0
1 52 72 0
1 -52 24 0
1 52 -70 0
1 -52 73 0
1 52 55 0
1 -52 -60 0
1 -52 22 0
1 55 -68 0
1 55 -58 0
1 55 -70 0
1 -55 60 0
1 55 -22 0
1 -55 -23 0
1 -55 -51 0
1 16 -8 0
1 -16 20 0
1 16 -53 0
1 16 -67 0
1 16 -29 0
1 16 -60 0
1 -16 56 0
1 -16 74 0
1 -16 4 0
1 -16 -5 0
1 -20 72 0
1 -20 -53 0
1 20 66 0
1 20 -67 0
1 -20 3 0
1 -20 -10 0
1 20 -56 0
1 -20 -74 0
1 20 75 0
1 20 4 0
1 -20 -5 0
1 -34 19 0
1 -34 -8 0
1 -34 53 0
1 -34 66 0
1 34 -67 0
1 -34 21 0
1 34 10 0
1 34 -31 0
1 -34 75 0
1 -34 76 0
1 33 19 0
1 -33 27 0
1 33 -67 0
1 33 21 0
1 -33 15 0
1 33 -56 0
1 -33 -75 0
1 -33 76 0
1 67 -33 0
1 -67 -20 0
1 -67 77 0
1 -67 43 0
1 -67 -36 0
1 67 16 0
1 67 22 0
1 67 32 0
1 -75 -33 0
1 -75 20 0
1 -75 -65 0
1 75 -67 0
1 -75 -77 0
1 75 -16 0
1 -75 78 0
1 66 68 0
1 66 -65 0
1 66 -79 0
1 66 80 0
1 66 -70 0
1 -66 34 0
1 66 -16 0
1 66 74 0
1 -66 81 0
1 -74 -68 0
1 -74 20 0
1 74 -65 0
1 -74 80 0
1 -74 22 0
1 -36 19 0
1 -36 -25 0
1 -36 21 0
1 36 15 0
1 -36 11 0
1 36 32 0
1 -32 68 0
1 32 -8 0
1 -32 12 0
1 32 67 0
1 32 -21 0
1 -32 15 0
1 32 10 0
1 -32 -11 0
1 32 76 0
1 -43 -19 0
1 43 35 0
1 43 -30 0
1 43 67 0
1 43 21 0
1 -43 -15 0
1 43 38 0
1 43 75 0
1 -43 42 0
1 42 -19 0
1 -42 30 0
1 42 -25 0
1 -42 -43 0
1 -42 21 0
1 42 -15 0
1 -42 82 0
1 -42 -38 0
1 42 76 0
1 -42 75 0
1 -42 81 0
1 15 -40 0
1 15 43 0
1 15 -36 0
1 15 -3 0
1 15 83 0
1 15 32 0
1 19 33 0
1 19 -84 0
1 19 85 0
1 -19 -36 0
1 -19 -15 0
1 -19 -5 0
1 -19 83 0
1 -19 -86 0
1 -19 -41 0
1 19 42 0
1 19 32 0
1 -21 84 0
1 -21 -87 0
1 -21 -77 0
1 -21 -43 0
1 -21 -6 0
1 21 -83 0
1 76 33 0
1 76 -84 0
1 76 87 0
1 76 36 0
1 -76 4 0
1 76 -88 0
1 -76 78 0
1 -76 42 0
1 -76 -89 0
1 76 32 0
1 -40 19 0
1 -40 -25 0
1 40 30 0
1 40 37 0
1 40 90 0
1 40 -38 0
1 40 -41 0
1 -41 -19 0
1 -41 30 0
1 -41 -25 0
1 -41 -37 0
1 41 -40 0
1 41 90 0
1 -41 38 0
1 -41 26 0
1 41 -78 0
1 -85 -35 0
1 -85 86 0
1 -85 -87 0
1 -85 -15 0
1 85 82 0
1 85 90 0
1 -85 39 0
1 86 19 0
1 86 35 0
1 86 -30 0
1 -86 91 0
1 86 15 0
1 86 -39 0
1 90 92 0
1 -90 -93 0
1 90 94 0
1 90 85 0
1 -90 -43 0
1 90 11 0
1 90 -95 0
1 -90 96 0
1 -90 86 0
1 -90 41 0
1 -90 -42 0
1 -30 -12 0
1 30 -92 0
1 -30 93 0
1 30 -94 0
1 30 85 0
1 30 40 0
1 -30 43 0
1 30 -97 0
1 30 98 0
1 -30 90 0
1 -30 -41 0
1 30 42 0
1 -82 -92 0
1 82 -10 0
1 -82 -99 0
1 82 41 0
1 -35 92 0
1 35 -84 0
1 -35 85 0
1 -35 -40 0
1 -35 -97 0
1 35 82 0
1 35 99 0
1 -35 -86 0
1 35 -41 0
1 35 42 0
1 94 30 0
1 94 -91 0
1 -94 -84 0
1 94 -100 0
1 96 94 0
1 -96 -83 0
1 -93 -30 0
1 93 -101 0
1 -93 100 0
1 93 -39 0
1 98 -30 0
1 -98 -93 0
1 -98 102 0
1 -98 -90 0
1 98 39 0
1 39 -103 0
1 -39 -91 0
1 -39 -85 0
1 39 98 0
1 -39 96 0
1 39 26 0
1 39 -104 0
1 -91 -103 0
1 -91 -37 0
1 91 -105 0
1 -91 -85 0
1 -91 -106 0
1 -91 98 0
1 91 -96 0
1 91 39 0
1 -100 -103 0
1 100 -107 0
1 100 92 0
1 -100 -102 0
1 100 -94 0
1 -100 -85 0
1 -100 -106 0
1 -100 97 0
1 -100 -38 0
1 -100 -108 0
1 -100 -86 0
1 102 -92 0
1 -102 94 0
1 102 85 0
1 102 -106 0
1 -102 109 0
1 102 -100 0
1 102 -97 0
1 102 -98 0
1 48 -110 0
1 -48 111 0
1 -48 -112 0
1 -48 -44 0
1 50 -113 0
1 50 -110 0
1 -50 -46 0
1 -50 -111 0
1 -57 113 0
1 -57 -110 0
1 -57 114 0
1 -57 59 0
1 -57 -115 0
1 57 -111 0
1 57 -112 0
1 57 116 0
1 -57 -51 0
1 -57 -117 0
1 -59 -113 0
1 -59 110 0
1 -59 114 0
1 -59 58 0
1 -59 -115 0
1 59 -111 0
1 59 112 0
1 -112 -61 0
1 112 -64 0
1 -112 50 0
1 112 62 0
1 -112 -118 0
1 112 -63 0
1 -112 -57 0
1 -112 -48 0
1 -110 -112 0
1 110 -61 0
1 110 119 0
1 110 64 0
1 -110 59 0
1 110 63 0
1 110 57 0
1 -110 48 0
1 -111 -59 0
1 111 -57 0
1 113 -120 0
1 -113 -59 0
1 113 -111 0
1 113 48 0
1 63 45 0
1 63 64 0
1 -63 -114 0
1 -63 -54 0
1 63 -23 0
1 63 -116 0
1 63 -117 0
1 -64 -45 0
1 -64 -24 0
1 64 114 0
1 64 -54 0
1 -64 63 0
1 64 117 0
1 62 -45 0
1 -62 -61 0
1 -62 110 0
1 -62 121 0
1 -62 122 0
1 62 54 0
1 62 22 0
1 62 -116 0
1 -62 -123 0
1 61 -124 0
1 61 65 0
1 -61 -110 0
1 61 114 0
1 61 -121 0
1 -61 122 0
1 -61 62 0
1 -61 116 0
1 -61 -117 0
1 -61 123 0
1 117 125 0
1 117 126 0
1 117 -72 0
1 -117 -61 0
1 117 -64 0
1 -117 59 0
1 117 127 0
1 -117 -73 0
1 -117 63 0
1 117 57 0
1 117 -128 0
1 -115 -126 0
1 -115 -61 0
1 -115 64 0
1 -115 59 0
1 -115 -129 0
1 -115 73 0
1 115 117 0
1 -115 -57 0
1 -116 61 0
1 116 64 0
1 -116 59 0
1 -116 -127 0
1 -116 62 0
1 116 -57 0
1 114 -125 0
1 114 64 0
1 114 130 0
1 114 -59 0
1 -114 -116 0
1 114 -127 0
1 -114 -62 0
1 -114 -63 0
1 60 124 0
1 -60 -45 0
1 60 -49 0
1 -60 -52 0
1 -60 -121 0
1 -60 122 0
1 -60 -54 0
1 60 -16 0
1 -60 -117 0
1 60 123 0
1 72 45 0
1 -72 -20 0
1 -72 -49 0
1 -72 52 0
1 -72 115 0
1 -72 121 0
1 -72 -122 0
1 -72 -47 0
1 -72 60 0
1 72 -117 0
1 -73 -124 0
1 73 131 0
1 -73 -115 0
1 -73 -132 0
1 -73 -34 0
1 -73 -55 0
1 -126 124 0
1 -126 33 0
1 -126 -133 0
1 -126 131 0
1 126 52 0
1 126 -115 0
1 -126 122 0
1 -126 132 0
1 126 123 0
1 -124 68 0
1 -124 72 0
1 -124 61 0
1 124 134 0
1 124 -122 0
1 124 70 0
1 -124 73 0
1 124 60 0
1 -124 -62 0
1 124 81 0
1 -122 -68 0
1 -122 124 0
1 -122 126 0
1 -122 72 0
1 122 -61 0
1 -122 134 0
1 122 80 0
1 -122 -135 0
1 -122 -62 0
1 -122 -136 0
1 122 81 0
1 123 72 0
1 123 61 0
1 -123 121 0
1 123 134 0
1 123 137 0
1 123 -127 0
1 123 60 0
1 -123 -62 0
1 121 125 0
1 -121 126 0
1 -121 -72 0
1 121 -61 0
1 121 -136 0
1 121 123 0
1 70 -133 0
1 -70 131 0
1 -70 36 0
1 -70 -127 0
1 -70 -132 0
1 70 -138 0
1 70 55 0
1 70 56 0
1 68 -124 0
1 68 -52 0
1 -68 -53 0
1 68 -66 0
1 68 122 0
1 -68 -132 0
1 68 -55 0
1 68 56 0
1 68 -74 0
1 68 -32 0
1 80 131 0
1 80 139 0
1 80 137 0
1 -80 -132 0
1 -80 -138 0
1 80 -140 0
1 80 -71 0
1 80 -74 0
1 -80 -81 0
1 81 -139 0
1 81 -69 0
1 -81 -66 0
1 81 122 0
1 -81 -132 0
1 -81 138 0
1 81 -71 0
1 131 -68 0
1 -131 141 0
1 -131 77 0
1 131 70 0
1 131 -138 0
1 -131 81 0
1 138 -68 0
1 138 -87 0
1 -138 77 0
1 -138 80 0
1 -138 70 0
1 138 73 0
1 -138 -142 0
1 138 -88 0
1 138 78 0
1 -138 -81 0
1 -133 45 0
1 -133 -126 0
1 133 143 0
1 -133 -144 0
1 -133 70 0
1 -133 73 0
1 133 145 0
1 133 -146 0
1 -133 -136 0
1 132 68 0
1 -132 -126 0
1 -132 133 0
1 132 -144 0
1 132 -147 0
1 -132 70 0
1 -132 54 0
1 -132 148 0
1 132 73 0
1 -132 136 0
1 -77 131 0
1 77 -139 0
1 77 69 0
1 -77 66 0
1 -77 40 0
1 77 -140 0
1 77 -71 0
1 -77 75 0
1 77 78 0
1 -78 131 0
1 78 66 0
1 78 67 0
1 78 -77 0
1 78 21 0
1 78 -138 0
1 78 -74 0
1 -78 -41 0
1 -78 -136 0
1 -78 76 0
1 87 -131 0
1 87 -139 0
1 87 147 0
1 87 149 0
1 87 138 0
1 87 -71 0
1 87 -88 0
1 -87 150 0
1 88 131 0
1 -88 -69 0
1 88 -87 0
1 88 -149 0
1 88 -71 0
1 88 -86 0
1 -88 -151 0
1 -88 146 0
1 88 150 0
1 69 53 0
1 -69 84 0
1 -69 152 0
1 -69 153 0
1 -69 -99 0
1 69 -88 0
1 -69 81 0
1 -71 -154 0
1 -71 -87 0
1 -71 80 0
1 -71 -99 0
1 -71 56 0
1 -71 155 0
1 -71 -88 0
1 -71 78 0
1 -71 -81 0
1 -139 52 0
1 139 -156 0
1 -139 -157 0
1 139 -144 0
1 139 87 0
1 -139 -153 0
1 139 -158 0
1 -139 145 0
1 139 -88 0
1 139 78 0
1 140 -139 0
1 140 156 0
1 -140 -144 0
1 -140 -87 0
1 140 158 0
1 -140 -145 0
1 -140 88 0
1 -84 -19 0
1 -84 -71 0
1 -84 94 0
1 -84 144 0
1 84 -21 0
1 -84 15 0
1 84 -83 0
1 84 -150 0
1 -84 -76 0
1 -83 19 0
1 83 -69 0
1 -83 79 0
1 -83 149 0
1 83 96 0
1 -83 150 0
1 83 76 0
1 101 -93 0
1 -101 156 0
1 101 69 0
1 -101 149 0
1 -101 159 0
1 -101 89 0
1 -99 160 0
1 99 101 0
1 -99 -79 0
1 -99 149 0
1 -99 159 0
1 -99 82 0
1 -99 71 0
1 99 -151 0
1 99 150 0
1 -149 161 0
1 149 -162 0
1 149 99 0
1 -149 83 0
1 -149 88 0
1 150 -161 0
1 150 107 0
1 -150 92 0
1 -150 -101 0
1 -150 84 0
1 -150 87 0
1 -150 -149 0
1 150 109 0
1 150 97 0
1 150 -99 0
1 -150 88 0
1 150 75 0
1 -150 163 0
1 79 161 0
1 -79 164 0
1 79 -154 0
1 -79 -101 0
1 79 -151 0
1 -79 -84 0
1 -79 66 0
1 79 -87 0
1 79 -165 0
1 79 -153 0
1 -79 99 0
1 -79 -83 0
1 -151 -161 0
1 -151 -164 0
1 -151 -153 0
1 151 99 0
1 151 -83 0
1 151 88 0
1 92 160 0
1 -92 -35 0
1 -92 102 0
1 92 -149 0
1 92 97 0
1 92 -82 0
1 -92 90 0
1 -92 -150 0
1 -97 -92 0
1 97 -30 0
1 97 -149 0
1 97 159 0
1 -97 -82 0
1 97 -89 0
1 -107 160 0
1 -107 -164 0
1 107 -166 0
1 -107 109 0
1 107 167 0
1 -107 95 0
1 -107 -100 0
1 -107 -150 0
1 -107 89 0
1 109 -160 0
1 109 -107 0
1 109 -166 0
1 109 149 0
1 109 165 0
1 109 168 0
1 -109 167 0
1 -109 -95 0
1 -109 100 0
1 -109 -150 0
1 -168 160 0
1 168 -107 0
1 -168 -92 0
1 168 -101 0
1 -168 109 0
1 168 -97 0
1 -168 99 0
1 168 -169 0
1 160 -92 0
1 160 -101 0
1 160 -170 0
1 -160 -171 0
1 160 106 0
1 160 -109 0
1 160 -99 0
1 -160 169 0
1 159 -107 0
1 -159 -101 0
1 159 -170 0
1 -159 -172 0
1 -159 173 0
1 159 -97 0
1 159 -99 0
1 159 174 0
1 89 -161 0
1 -89 107 0
1 89 -172 0
1 -89 109 0
1 -89 -159 0
1 -89 -97 0
1 -89 -99 0
1 -89 174 0
1 89 76 0
1 89 175 0
1 -103 161 0
1 -103 160 0
1 -103 -176 0
1 103 102 0
1 103 -91 0
1 -103 -95 0
1 -106 -103 0
1 106 160 0
1 106 102 0
1 106 167 0
1 106 95 0
1 -106 100 0
1 -106 39 0
1 -169 -166 0
1 -169 -105 0
1 -169 -171 0
1 169 -108 0
1 -169 -175 0
1 171 166 0
1 171 -176 0
1 171 -167 0
1 171 -95 0
1 -171 -108 0
1 -171 -169 0
1 -95 103 0
1 -95 107 0
1 95 -176 0
1 95 177 0
1 -95 -178 0
1 -95 -171 0
1 -95 106 0
1 -95 -109 0
1 -95 90 0
1 95 -169 0
1 -176 -107 0
1 176 171 0
1 176 109 0
1 -176 95 0
1 176 -179 0
1 176 -169 0
1 -167 107 0
1 -167 166 0
1 167 -180 0
1 167 171 0
1 -167 106 0
1 167 82 0
1 -167 -181 0
1 -167 174 0
1 167 -169 0
1 -166 35 0
1 166 180 0
1 166 106 0
1 166 -167 0
1 -166 181 0
1 179 -176 0
1 179 -182 0
1 179 105 0
1 179 178 0
1 179 95 0
1 -179 108 0
1 179 -104 0
1 -179 -174 0
1 178 176 0
1 178 -182 0
1 178 105 0
1 -178 -108 0
1 -178 104 0
1 -178 -179 0
1 -183 176 0
1 -183 -177 0
1 183 95 0
1 -183 104 0
1 183 181 0
1 177 176 0
1 -177 -95 0
1 177 108 0
1 -177 -183 0
1 -104 178 0
1 104 171 0
1 -104 -183 0
1 -104 179 0
1 -105 177 0
1 -105 -178 0
1 -105 -171 0
1 -105 183 0
1 -105 179 0
1 -105 -169 0
1 -108 -182 0
1 -108 177 0
1 -108 178 0
1 108 -171 0
1 -108 -183 0
1 182 102 0
1 182 -171 0
1 -182 108 0
1 -127 120 0
1 -127 -119 0
1 -127 115 0
1 127 121 0
1 127 70 0
1 -127 184 0
1 -127 118 0
1 -127 117 0
1 -125 120 0
1 -125 -114 0
1 125 123 0
1 -137 -120 0
1 -137 80 0
1 137 -185 0
1 137 -128 0
1 186 -119 0
1 -186 -129 0
1 -186 121 0
1 -186 137 0
1 186 -184 0
1 186 -185 0
1 186 128 0
1 186 123 0
1 186 81 0
1 -118 -125 0
1 -118 -134 0
1 118 -187 0
1 -118 137 0
1 118 127 0
1 -118 112 0
1 -118 -136 0
1 118 186 0
1 119 -110 0
1 119 -188 0
1 -119 147 0
1 -119 137 0
1 -119 127 0
1 119 -136 0
1 -119 186 0
1 -184 -120 0
1 -120 -125 0
1 -120 -113 0
1 -120 189 0
1 -120 137 0
1 120 -184 0
1 -134 133 0
1 134 130 0
1 134 77 0
1 -134 122 0
1 -134 118 0
1 -134 185 0
1 134 128 0
1 134 136 0
1 -134 123 0
1 -136 124 0
1 -136 -133 0
1 136 129 0
1 -136 -121 0
1 136 -122 0
1 -136 -132 0
1 136 -118 0
1 136 185 0
1 136 128 0
1 147 190 0
1 147 119 0
1 147 -87 0
1 147 129 0
1 147 191 0
1 147 -132 0
1 147 185 0
1 -147 118 0
1 -147 -192 0
1 -146 -119 0
1 -146 147 0
1 146 -129 0
1 146 191 0
1 146 -132 0
1 -146 -118 0
1 -146 88 0
1 -146 -192 0
1 128 193 0
1 -128 -156 0
1 128 144 0
1 -128 -129 0
1 -128 134 0
1 -128 -137 0
1 -128 194 0
1 -128 146 0
1 128 195 0
1 -128 -186 0
1 -129 -193 0
1 -129 156 0
1 -129 -144 0
1 -129 196 0
1 129 -137 0
1 -129 194 0
1 -129 -145 0
1 -129 -146 0
1 -129 186 0
1 -185 -130 0
1 185 147 0
1 -185 -134 0
1 -185 -116 0
1 -185 -194 0
1 185 -146 0
1 185 -197 0
1 185 -186 0
1 -130 134 0
1 130 -137 0
1 -130 194 0
1 -130 -136 0
1 144 -129 0
1 -144 -191 0
1 144 -135 0
1 -144 145 0
1 144 -128 0
1 -144 192 0
1 145 190 0
1 145 -133 0
1 145 129 0
1 -145 -191 0
1 -145 135 0
1 145 -138 0
1 145 140 0
1 -145 -83 0
1 145 128 0
1 -145 -192 0
1 -156 -190 0
1 -156 101 0
1 156 129 0
1 156 135 0
1 156 -148 0
1 -156 142 0
1 -156 -140 0
1 -156 -158 0
1 158 143 0
1 158 141 0
1 158 -139 0
1 -158 156 0
1 158 129 0
1 -158 135 0
1 -158 142 0
1 -158 -140 0
1 158 99 0
1 -158 128 0
1 -158 192 0
1 190 124 0
1 -190 164 0
1 -190 198 0
1 190 154 0
1 -190 156 0
1 190 144 0
1 190 153 0
1 190 158 0
1 190 -145 0
1 -135 -190 0
1 135 164 0
1 135 154 0
1 135 156 0
1 -135 144 0
1 -135 147 0
1 135 165 0
1 -135 -199 0
1 135 153 0
1 135 -158 0
1 135 146 0
1 192 200 0
1 192 201 0
1 -192 144 0
1 -192 147 0
1 -192 -191 0
1 192 202 0
1 -192 145 0
1 192 -146 0
1 192 123 0
1 -191 -203 0
1 -191 193 0
1 191 156 0
1 -191 147 0
1 191 121 0
1 191 -204 0
1 -191 -202 0
1 -191 -194 0
1 -191 145 0
1 191 -146 0
1 191 -192 0
1 -154 -141 0
1 154 -69 0
1 154 135 0
1 -154 153 0
1 -154 71 0
1 153 -190 0
1 153 -154 0
1 -153 -141 0
1 -153 69 0
1 -153 135 0
1 -153 -97 0
1 153 -148 0
1 -153 -194 0
1 -153 -142 0
1 -153 -71 0
1 153 151 0
1 -164 -107 0
1 164 -143 0
1 -164 -157 0
1 164 135 0
1 164 -165 0
1 -164 142 0
1 -164 -205 0
1 -164 -155 0
1 -165 -190 0
1 -165 152 0
1 165 135 0
1 -165 109 0
1 165 -202 0
1 165 205 0
1 141 161 0
1 141 -154 0
1 -141 -206 0
1 -141 -165 0
1 141 -153 0
1 141 158 0
1 142 -164 0
1 142 154 0
1 -142 -206 0
1 142 -172 0
1 142 -138 0
1 143 -207 0
1 -143 201 0
1 -143 -164 0
1 -143 -154 0
1 -143 206 0
1 143 -208 0
1 -143 204 0
1 143 -165 0
1 143 -153 0
1 -143 -158 0
1 148 -207 0
1 148 201 0
1 148 154 0
1 -148 -156 0
1 148 -206 0
1 148 -208 0
1 148 -165 0
1 -148 -153 0
1 -148 158 0
1 -161 201 0
1 161 -157 0
1 -161 -152 0
1 161 -149 0
1 161 159 0
1 161 142 0
1 161 -205 0
1 161 151 0
1 161 150 0
1 -161 -89 0
1 -173 161 0
1 173 157 0
1 173 152 0
1 173 149 0
1 173 -106 0
1 173 -142 0
1 -173 -205 0
1 173 -151 0
1 175 207 0
1 175 152 0
1 -175 -209 0
1 -175 172 0
1 175 -162 0
1 -175 -159 0
1 -175 205 0
1 175 -155 0
1 -175 -210 0
1 -175 163 0
1 175 89 0
1 172 157 0
1 -172 152 0
1 -172 175 0
1 172 -162 0
1 172 -142 0
1 172 -89 0
1 -152 -164 0
1 152 180 0
1 -152 -172 0
1 -152 173 0
1 -152 -165 0
1 -152 -181 0
1 152 174 0
1 152 -175 0
1 -155 -180 0
1 155 -170 0
1 155 172 0
1 -155 173 0
1 155 -71 0
1 -155 174 0
1 157 -161 0
1 157 -211 0
1 -157 206 0
1 -157 172 0
1 -157 173 0
1 -157 -165 0
1 157 -205 0
1 157 -212 0
1 -205 164 0
1 205 -157 0
1 -205 -211 0
1 205 -206 0
1 -205 -172 0
1 -205 173 0
1 205 165 0
1 -205 -140 0
1 -205 -212 0
1 174 160 0
1 -174 209 0
1 -174 -168 0
1 174 167 0
1 -174 -155 0
1 -174 -179 0
1 -170 160 0
1 -170 -178 0
1 170 209 0
1 170 -206 0
1 -170 -162 0
1 -170 167 0
1 170 -163 0
1 170 210 0
1 -170 -174 0
1 170 -89 0
1 181 -166 0
1 -181 180 0
1 181 152 0
1 181 -167 0
1 181 183 0
1 -181 -210 0
1 181 -163 0
1 -180 166 0
1 -180 177 0
1 180 -152 0
1 180 -211 0
1 180 210 0
1 180 -181 0
1 -180 -163 0
1 -162 -180 0
1 -162 -149 0
1 162 163 0
1 162 181 0
1 163 170 0
1 163 -174 0
1 -163 -175 0
1 -209 -180 0
1 209 -79 0
1 -209 210 0
1 -209 181 0
1 -209 -174 0
1 209 175 0
1 -210 180 0
1 -210 170 0
1 -210 209 0
1 210 -172 0
1 210 -151 0
1 210 181 0
1 -210 -174 0
1 210 -175 0
1 -193 -189 0
1 193 188 0
1 193 -194 0
1 -193 187 0
1 -193 -128 0
1 -194 -129 0
1 -194 -191 0
1 -194 153 0
1 194 -213 0
1 -194 187 0
1 194 128 0
1 203 -164 0
1 203 189 0
1 -203 191 0
1 203 202 0
1 203 187 0
1 203 197 0
1 -203 -195 0
1 203 -192 0
1 202 -203 0
1 202 189 0
1 202 -188 0
1 -202 -165 0
1 202 -213 0
1 202 197 0
1 -202 192 0
1 187 -207 0
1 187 -201 0
1 -187 -193 0
1 -187 -188 0
1 -187 208 0
1 187 -204 0
1 -187 118 0
1 -188 207 0
1 188 -203 0
1 -188 193 0
1 -188 119 0
1 188 -202 0
1 188 -194 0
1 213 -202 0
1 213 -184 0
1 -189 -193 0
1 189 -213 0
1 189 -120 0
1 189 202 0
1 -189 -194 0
1 -201 -161 0
1 201 -188 0
1 -201 214 0
1 -201 191 0
1 201 -148 0
1 -201 -187 0
1 -201 197 0
1 -201 192 0
1 -204 188 0
1 -204 -196 0
1 -204 -191 0
1 204 -173 0
1 204 135 0
1 204 -148 0
1 -204 -187 0
1 -204 -197 0
1 -207 -200 0
1 207 -198 0
1 -207 -143 0
1 -207 -214 0
1 -207 -196 0
1 207 208 0
1 -207 215 0
1 207 -148 0
1 207 -187 0
1 -207 -197 0
1 207 195 0
1 207 -175 0
1 -208 207 0
1 208 200 0
1 208 -143 0
1 -208 -188 0
1 208 -196 0
1 208 172 0
1 -208 -215 0
1 208 -199 0
1 208 -148 0
1 208 -187 0
1 -208 -195 0
1 195 -201 0
1 -195 -211 0
1 -195 206 0
1 -195 202 0
1 195 212 0
1 196 203 0
1 -196 -211 0
1 -196 -129 0
1 196 -206 0
1 196 -208 0
1 196 -202 0
1 196 195 0
1 -197 -207 0
1 197 -201 0
1 197 -214 0
1 197 202 0
1 214 203 0
1 -214 208 0
1 214 -202 0
1 -206 200 0
1 206 198 0
1 -206 196 0
1 206 215 0
1 206 -205 0
1 -206 -195 0
1 -212 -200 0
1 -212 198 0
1 212 -157 0
1 -212 -211 0
1 -212 199 0
1 -212 -205 0
1 -212 -181 0
1 -211 -200 0
1 -211 -198 0
1 -211 -180 0
1 211 205 0
1 198 -212 0
1 199 -211 0
1 -199 206 0
1 199 208 0
1 -199 -135 0
1 200 -215 0
1 200 212 0
1 -200 -192 0
1 215 -207 0
1 215 200 0
1 -215 -191 0
1 -215 208 0
